p cnf 7230 17
3964 -3965 0
3961 -3963 0
-3440 -3961 3962 0
3440 -3963 0
3959 -3963 0
1610 -3961 0
-1610 -3446 3960 0
-3962 3963 0
-3960 3961 0
3446 -3961 0
-1612 -3430 -3442 -3444 3965 0
3958 -3959 0
-3958 3959 0
3444 -3965 0
3442 -3965 0
3430 -3965 0
1612 -3965 0
